data;


param d:= 100;
param r:=5;
param p:=0.500000;
param M:=1000;
param U:=
         1         1       -4.240434e-01
         2         1       -1.647764e+00
         3         1       -1.036348e-01
         4         1       -9.654292e-01
         5         1        6.355242e-01
         6         1       -1.458604e+00
         7         1        8.960747e-01
         8         1       -1.831007e+00
         9         1        8.622992e-01
        10         1       -4.588248e-01
        11         1       -9.032798e-01
        12         1       -7.367112e-02
        13         1       -3.565392e-01
        14         1        1.697539e-01
        15         1       -2.569527e-01
        16         1       -7.177038e-02
        17         1       -4.593141e-01
        18         1        1.100165e+00
        19         1       -1.173466e+00
        20         1        6.454212e-01
        21         1       -1.387507e-01
        22         1       -7.066221e-01
        23         1       -2.187697e-02
        24         1       -4.552992e-01
        25         1       -2.699626e-01
        26         1        3.727763e-01
        27         1       -2.151914e+00
        28         1        6.632372e-01
        29         1        1.444729e+00
        30         1       -9.329247e-01
        31         1        1.526219e+00
        32         1       -1.099869e+00
        33         1        3.489688e-01
        34         1       -5.681445e-01
        35         1       -1.015697e-02
        36         1        2.721017e-02
        37         1       -1.070995e+00
        38         1       -2.276651e-01
        39         1       -1.805905e+00
        40         1        3.134261e-01
        41         1        3.530690e-01
        42         1        6.857299e-01
        43         1        1.369800e+00
        44         1       -2.303055e-01
        45         1        5.485575e-01
        46         1       -1.794215e-01
        47         1        3.820538e-01
        48         1       -7.527179e-01
        49         1        6.890593e-01
        50         1       -2.810010e-01
        51         1       -1.103759e+00
        52         1       -3.529424e-01
        53         1        7.395485e-01
        54         1       -1.988161e+00
        55         1       -1.026727e-01
        56         1       -1.675851e-01
        57         1       -5.698303e-01
        58         1        1.178120e+00
        59         1       -1.896323e+00
        60         1        3.398849e-01
        61         1        2.068322e-01
        62         1        7.861833e-01
        63         1       -1.905108e+00
        64         1       -6.388427e-01
        65         1        9.148978e-02
        66         1       -5.380073e-01
        67         1        6.493878e-01
        68         1        1.117174e+00
        69         1        1.431408e+00
        70         1        1.713412e+00
        71         1        3.250372e-01
        72         1       -1.266906e+00
        73         1        2.273688e-01
        74         1       -1.316174e+00
        75         1       -1.652575e-01
        76         1       -9.203154e-01
        77         1        1.615548e+00
        78         1       -2.072261e+00
        79         1        6.560992e-01
        80         1       -1.665844e+00
        81         1       -5.457574e-01
        82         1        1.380466e+00
        83         1        1.162747e+00
        84         1       -7.130640e-02
        85         1        1.734310e-02
        86         1        3.008603e-01
        87         1       -1.276972e+00
        88         1        1.519413e-01
        89         1        1.145247e+00
        90         1        1.197247e+00
        91         1        8.722906e-01
        92         1       -7.717963e-01
        93         1       -2.858627e-01
        94         1        1.620926e-01
        95         1       -1.417996e+00
        96         1        1.844553e-02
        97         1        3.902543e-01
        98         1        1.950217e-01
        99         1        9.537012e-01
       100         1        1.805782e-01
         1         2        7.145688e-01
         2         2       -9.351502e-01
         3         2        1.062772e-02
         4         2       -2.683298e+00
         5         2       -6.388823e-01
         6         2        1.314091e+00
         7         2        7.770972e-01
         8         2        6.260408e-01
         9         2       -1.633142e+00
        10         2       -4.212654e-01
        11         2        9.982178e-01
        12         2        7.826036e-01
        13         2       -5.120462e-01
        14         2       -1.495484e+00
        15         2        3.102318e-01
        16         2       -3.145512e-01
        17         2       -9.790359e-01
        18         2        3.733443e-02
        19         2       -1.184154e+00
        20         2        5.719750e-01
        21         2        1.783233e-01
        22         2        8.259963e-01
        23         2        1.504883e+00
        24         2       -4.631074e-01
        25         2        2.334004e-01
        26         2        2.616335e+00
        27         2        1.661266e-01
        28         2        2.180512e+00
        29         2        2.239005e-02
        30         2        4.733830e-01
        31         2        7.117883e-01
        32         2       -1.749822e+00
        33         2        3.173317e-01
        34         2        2.794931e-02
        35         2        6.445200e-02
        36         2        8.561343e-01
        37         2        7.103495e-01
        38         2       -3.396994e-01
        39         2        7.812888e-01
        40         2        1.125155e+00
        41         2        8.964609e-01
        42         2        6.091396e-01
        43         2        6.363147e-03
        44         2       -1.392105e-01
        45         2       -4.766551e-02
        46         2        1.602312e+00
        47         2       -5.490396e-01
        48         2       -1.157623e+00
        49         2        3.592489e-01
        50         2       -9.268234e-01
        51         2       -2.050371e+00
        52         2        8.274255e-02
        53         2       -7.517831e-02
        54         2        6.973137e-01
        55         2       -3.413300e-01
        56         2        6.160869e-01
        57         2        3.613252e-01
        58         2        2.000907e-02
        59         2        1.424779e+00
        60         2       -1.812142e-01
        61         2       -1.716208e+00
        62         2        6.944457e-01
        63         2        7.539919e-01
        64         2        1.663794e-01
        65         2       -7.737697e-01
        66         2       -4.128954e-01
        67         2       -5.203304e-01
        68         2       -1.110068e+00
        69         2       -1.335648e-01
        70         2       -5.163227e-01
        71         2       -1.660602e+00
        72         2       -2.602803e+00
        73         2        1.786095e+00
        74         2       -1.608285e+00
        75         2        1.205626e+00
        76         2       -2.420089e+00
        77         2       -4.900275e-01
        78         2        4.008277e-01
        79         2        2.630428e-01
        80         2        6.377150e-01
        81         2        5.684502e-01
        82         2       -5.076332e-01
        83         2       -3.348783e-01
        84         2        8.845880e-01
        85         2        9.676101e-01
        86         2       -5.819353e-01
        87         2       -7.708907e-01
        88         2        5.314206e-01
        89         2        3.064233e-01
        90         2        5.641074e-02
        91         2       -1.076940e+00
        92         2       -3.952431e-01
        93         2       -1.674599e+00
        94         2       -2.030665e+00
        95         2        1.054308e+00
        96         2        2.418607e-01
        97         2       -1.695641e+00
        98         2       -1.058136e+00
        99         2       -3.126025e-01
       100         2        7.327903e-01
         1         3       -5.027173e-01
         2         3        7.344699e-01
         3         3       -1.522735e+00
         4         3       -9.699820e-02
         5         3        1.128391e+00
         6         3       -1.047086e+00
         7         3        8.495041e-01
         8         3       -4.388623e-01
         9         3        1.058766e+00
        10         3       -1.615359e-01
        11         3       -1.879724e+00
        12         3        3.393672e-02
        13         3       -4.830390e-01
        14         3        6.265178e-02
        15         3        1.818041e-01
        16         3        1.906326e+00
        17         3        8.187588e-01
        18         3       -7.614055e-01
        19         3        4.099190e-01
        20         3       -3.714560e-01
        21         3        1.804559e+00
        22         3        1.152932e-01
        23         3       -5.170117e-01
        24         3       -7.807520e-02
        25         3       -3.849962e-01
        26         3       -1.039891e+00
        27         3        1.345045e-02
        28         3       -7.807160e-01
        29         3       -9.704414e-02
        30         3        5.352435e-01
        31         3       -5.422315e-01
        32         3        2.761055e-01
        33         3       -1.406641e+00
        34         3        9.626644e-03
        35         3        1.278822e+00
        36         3       -2.766191e-01
        37         3        1.475277e+00
        38         3        1.141711e-01
        39         3        2.449209e+00
        40         3        8.625697e-01
        41         3        2.196198e+00
        42         3       -9.586938e-01
        43         3        2.531239e-01
        44         3       -4.029865e-01
        45         3        7.081406e-01
        46         3        8.908591e-01
        47         3        2.052258e-01
        48         3       -1.913789e-01
        49         3       -1.282683e+00
        50         3       -5.096518e-02
        51         3        9.320050e-01
        52         3        1.698809e+00
        53         3       -6.076152e-01
        54         3        1.927709e+00
        55         3       -1.093019e+00
        56         3        2.406803e+00
        57         3        3.861867e-02
        58         3       -9.944593e-01
        59         3       -9.179939e-01
        60         3       -7.333446e-01
        61         3        1.237067e-01
        62         3        1.433224e-01
        63         3       -1.128652e+00
        64         3        1.092225e+00
        65         3        5.713197e-01
        66         3       -1.976801e-02
        67         3        1.570323e-02
        68         3       -3.566271e-01
        69         3       -2.709405e-01
        70         3       -1.189289e+00
        71         3        1.009691e+00
        72         3        1.587962e+00
        73         3       -9.651799e-02
        74         3        2.795790e-01
        75         3       -1.237897e+00
        76         3       -8.434906e-02
        77         3        1.269955e+00
        78         3       -5.602872e-01
        79         3       -2.109126e+00
        80         3       -1.623800e+00
        81         3        1.885997e+00
        82         3        1.351999e-01
        83         3       -8.178918e-02
        84         3        1.580158e-01
        85         3       -9.530792e-01
        86         3        2.791359e-01
        87         3        8.901188e-01
        88         3        1.331335e+00
        89         3        3.833693e-01
        90         3       -1.255406e-02
        91         3       -1.021562e+00
        92         3        1.877583e-01
        93         3       -1.186592e+00
        94         3       -1.775111e+00
        95         3       -6.984563e-01
        96         3        1.226905e+00
        97         3        1.392615e+00
        98         3       -5.557516e-01
        99         3       -5.663836e-02
       100         3       -1.052160e+00
         1         4        1.783992e+00
         2         4       -1.504955e+00
         3         4        4.748318e-02
         4         4       -1.309100e+00
         5         4        2.877897e-01
         6         4       -4.153449e-02
         7         4       -1.158376e+00
         8         4       -1.601555e+00
         9         4       -5.276757e-02
        10         4        1.776774e+00
        11         4        5.815876e-02
        12         4       -1.895620e+00
        13         4       -3.459754e-01
        14         4        1.407705e+00
        15         4       -8.036934e-01
        16         4       -7.930146e-01
        17         4       -9.758848e-01
        18         4        1.164494e+00
        19         4       -5.969690e-01
        20         4       -1.073744e+00
        21         4       -1.726406e+00
        22         4        2.183083e+00
        23         4        8.762375e-01
        24         4        9.699029e-01
        25         4        2.147804e-02
        26         4        8.667604e-01
        27         4        2.924689e-01
        28         4       -1.383553e+00
        29         4       -1.066644e+00
        30         4       -1.480350e-01
        31         4       -2.381674e-01
        32         4       -3.704002e-01
        33         4       -5.582795e-01
        34         4       -1.297642e+00
        35         4       -1.292748e-01
        36         4        5.686386e-01
        37         4       -6.824067e-02
        38         4       -8.395963e-01
        39         4       -8.007056e-02
        40         4       -6.914935e-01
        41         4        4.840312e-02
        42         4       -1.419867e+00
        43         4        2.023306e+00
        44         4        6.167699e-01
        45         4        3.871551e-01
        46         4       -4.644889e-01
        47         4       -5.981533e-01
        48         4        1.093896e+00
        49         4       -7.859225e-03
        50         4        1.050894e+00
        51         4        2.800035e-01
        52         4       -1.361009e+00
        53         4       -3.690845e-02
        54         4       -1.916132e+00
        55         4       -1.408563e+00
        56         4        8.613788e-01
        57         4       -7.592952e-01
        58         4        1.163059e-01
        59         4        4.637296e-01
        60         4        3.497021e-01
        61         4       -4.341174e-01
        62         4       -2.476482e-01
        63         4       -1.393341e+00
        64         4        2.085721e+00
        65         4        6.412511e-01
        66         4        9.934842e-01
        67         4       -4.932402e-01
        68         4        6.190276e-01
        69         4       -1.374600e+00
        70         4       -4.571178e-01
        71         4       -1.155885e+00
        72         4       -9.616084e-01
        73         4        1.744321e-02
        74         4       -1.461169e+00
        75         4        8.916988e-02
        76         4       -4.567979e-01
        77         4       -6.919093e-01
        78         4        2.175940e+00
        79         4       -1.979981e+00
        80         4        3.196556e-01
        81         4        4.000013e-02
        82         4       -5.096132e-01
        83         4        4.080618e-01
        84         4        5.518547e-02
        85         4       -8.989726e-01
        86         4       -2.321935e-01
        87         4       -1.498789e+00
        88         4       -5.935418e-01
        89         4       -7.608182e-01
        90         4       -5.479798e-01
        91         4        1.095993e+00
        92         4        7.556277e-01
        93         4        2.631400e+00
        94         4        2.263112e+00
        95         4       -3.063644e-01
        96         4        2.954186e-01
        97         4       -7.776669e-01
        98         4       -2.234218e+00
        99         4        2.411455e-01
       100         4       -6.665405e-01
         1         5        2.967667e-01
         2         5        4.506509e-01
         3         5        2.256587e-01
         4         5       -1.868196e+00
         5         5       -5.951478e-01
         6         5        1.341456e+00
         7         5       -5.655421e-02
         8         5       -5.484677e-01
         9         5        1.366456e-01
        10         5        2.530767e-01
        11         5        2.611510e-02
        12         5       -6.071265e-01
        13         5       -7.024663e-02
        14         5       -4.531419e-01
        15         5       -6.936592e-01
        16         5       -5.995944e-01
        17         5        3.457690e-01
        18         5       -1.650088e+00
        19         5       -1.403843e+00
        20         5        1.018940e+00
        21         5        2.886614e-01
        22         5       -1.872179e+00
        23         5        2.756271e-01
        24         5        5.531965e-01
        25         5        1.323606e+00
        26         5       -8.748829e-01
        27         5        8.164911e-02
        28         5       -2.055408e-01
        29         5       -1.319113e+00
        30         5        7.874061e-02
        31         5        3.716491e-01
        32         5        1.479452e+00
        33         5        9.700441e-01
        34         5        2.134797e-01
        35         5       -1.931358e+00
        36         5        1.561954e+00
        37         5        2.035675e+00
        38         5       -1.274991e-01
        39         5       -4.274476e-01
        40         5        5.075360e-01
        41         5       -2.054170e+00
        42         5       -7.425600e-02
        43         5        5.775775e-01
        44         5       -3.078428e-01
        45         5        2.894635e-01
        46         5       -1.637189e+00
        47         5       -1.872149e+00
        48         5       -8.963394e-01
        49         5       -1.509566e-01
        50         5       -5.657916e-01
        51         5       -9.596543e-01
        52         5        3.270020e-01
        53         5       -5.421926e-01
        54         5        2.220560e-01
        55         5        4.826624e-01
        56         5       -1.261367e-01
        57         5        9.783639e-01
        58         5        1.848321e-01
        59         5       -8.949856e-01
        60         5       -1.293991e-01
        61         5        9.217709e-01
        62         5       -1.822413e-01
        63         5        5.988987e-01
        64         5       -5.713305e-01
        65         5        1.184925e+00
        66         5        1.523472e+00
        67         5        3.164657e-01
        68         5       -1.118929e+00
        69         5       -7.108174e-01
        70         5       -9.518270e-02
        71         5        1.062582e+00
        72         5        4.986078e-01
        73         5        3.202016e-01
        74         5       -1.925186e+00
        75         5        2.725644e-03
        76         5        1.554483e+00
        77         5       -1.127976e+00
        78         5        1.324367e+00
        79         5        8.098757e-01
        80         5        1.323103e+00
        81         5       -1.166761e+00
        82         5        5.940155e-01
        83         5        5.266570e-02
        84         5       -1.393204e-01
        85         5        2.587881e-02
        86         5       -9.925619e-02
        87         5        1.418295e-01
        88         5        4.319159e-01
        89         5        1.156028e+00
        90         5        1.680296e+00
        91         5       -1.007089e+00
        92         5       -6.146208e-01
        93         5       -7.804494e-01
        94         5        5.821732e-02
        95         5       -5.185791e-01
        96         5        9.841130e-01
        97         5       -4.840319e-01
        98         5        1.543794e-02
        99         5        2.173707e+00
       100         5       -1.023430e+00
;

param theta:=
    1        9.700962e-01
    2        1.329531e+00
    3        1.720434e-01
    4       -3.662995e-01
    5        6.423979e-01
;
param X_true:=
    1        1.366639e-01
    2       -1.808172e+00
    3        3.319813e-02
    4       -5.160637e+00
    5       -4.058427e-01
    6        1.093625e+00
    7        2.550510e+00
    8       -7.792361e-01
    9       -1.052906e+00
   10       -1.480817e+00
   11        1.292439e-02
   12        1.442218e+00
   13       -1.015619e+00
   14       -2.513552e+00
   15       -1.054150e-01
   16       -1.991433e-01
   17       -1.101657e+00
   18       -3.758782e-01
   19       -3.313920e+00
   20        2.302799e+00
   21        1.203787e+00
   22       -1.814018e+00
   23        1.856812e+00
   24       -1.053640e+00
   25        7.480321e-01
   26        2.722487e+00
   27       -2.070567e+00
   28        3.666883e+00
   29        9.364119e-01
   30       -2.196354e-02
   31        2.458980e+00
   32       -1.988559e+00
   33        1.178111e+00
   34        6.043908e-03
   35       -9.553954e-01
   36        2.012649e+00
   37        1.345972e+00
   38       -4.922828e-01
   39       -5.205522e-01
   40        2.527268e+00
   41        6.061281e-01
   42        1.843943e+00
   43        1.081015e+00
   44       -9.159854e-01
   45        7.461423e-01
   46        1.262718e+00
   47       -1.340458e+00
   48       -3.235183e+00
   49        7.547041e-01
   50       -2.317437e+00
   51       -4.338790e+00
   52        7.728315e-01
   53       -1.333885e-02
   54        2.813968e-01
   55        1.056002e-01
   56        6.813790e-01
   57        7.850935e-01
   58        1.063256e+00
   59       -7.635568e-01
   60       -2.483332e-01
   61       -1.195410e+00
   62        1.734328e+00
   63       -3.095993e-01
   64       -1.252851e+00
   65       -4.815249e-01
   66       -5.183966e-01
   67        3.760651e-01
   68       -1.522467e+00
   69        1.261907e+00
   70        9.527084e-01
   71       -5.922924e-01
   72       -3.630421e+00
   73        3.005237e+00
   74       -3.999377e+00
   75        1.150544e+00
   76       -2.965303e+00
   77        6.862459e-01
   78       -1.509393e+00
   79        1.899779e+00
   80       -2.120780e-01
   81       -1.786424e-01
   82        1.227578e+00
   83        4.530753e-01
   84        1.021972e+00
   85        1.536762e+00
   86       -4.992697e-01
   87       -1.435255e+00
   88        1.679537e+00
   89        2.389033e+00
   90        2.566621e+00
   91       -1.762096e+00
   92       -1.905354e+00
   93       -4.050174e+00
   94       -3.648652e+00
   95       -2.007962e-01
   96        9.633900e-01
   97       -1.774801e+00
   98       -5.884348e-01
   99        1.915945e+00
  100        5.815235e-01
;
param X:=
    1        1.366639e-01
    2       -1.808172e+00
    3        3.319813e-02
    4        1.160283e+00
    5       -4.058427e-01
    6        7.286047e-01
    7        2.575095e-01
    8       -7.792361e-01
    9       -1.285524e+00
   10        1.472625e+00
   11       -3.895120e-01
   12       -1.414021e+00
   13       -1.015619e+00
   14       -2.513552e+00
   15        3.446555e-01
   16        1.366746e+00
   17       -6.356556e-01
   18        3.837446e-01
   19       -3.313920e+00
   20        2.302799e+00
   21        2.747262e-01
   22        8.275047e-01
   23       -1.465108e-02
   24       -1.053640e+00
   25       -1.834724e+00
   26        2.722487e+00
   27       -8.163590e-02
   28        3.666883e+00
   29       -3.186750e-01
   30       -2.196354e-02
   31        2.458980e+00
   32       -4.216675e-01
   33        1.178111e+00
   34       -7.201698e-01
   35       -2.538362e-01
   36        2.012649e+00
   37        1.345972e+00
   38       -4.922828e-01
   39       -5.888167e-01
   40        2.527268e+00
   41       -3.402555e-01
   42        1.055364e-01
   43       -8.003269e-01
   44       -9.159854e-01
   45       -1.486794e+00
   46        1.540987e+00
   47       -1.340458e+00
   48        2.296767e-01
   49        7.547041e-01
   50       -2.317437e+00
   51       -2.271109e+00
   52        7.728315e-01
   53        6.488577e-01
   54        1.733828e+00
   55        1.056002e-01
   56        1.585991e+00
   57        2.021858e-01
   58        9.540005e-01
   59        1.169551e+00
   60       -2.483332e-01
   61       -1.195410e+00
   62       -6.706637e-01
   63       -1.604731e-02
   64       -1.252851e+00
   65       -4.815249e-01
   66        3.235706e-01
   67        2.383230e-01
   68       -1.195125e-01
   69        1.261907e+00
   70        9.527084e-01
   71        5.606643e-01
   72        7.842446e-01
   73        1.305370e-01
   74       -7.620864e-01
   75        1.150544e+00
   76       -2.965303e+00
   77        6.862459e-01
   78        1.729535e+00
   79        1.899779e+00
   80       -2.120780e-01
   81       -1.786424e-01
   82        1.227578e+00
   83        4.530753e-01
   84        1.021972e+00
   85        1.536762e+00
   86       -9.985153e-01
   87       -1.435255e+00
   88        2.057191e+00
   89        2.389033e+00
   90        2.566621e+00
   91       -1.762096e+00
   92       -1.947875e-01
   93       -4.050174e+00
   94       -3.648652e+00
   95       -4.001108e-01
   96        9.633900e-01
   97       -1.774801e+00
   98       -5.884348e-01
   99        8.432274e-01
  100        7.436723e-01
;
param outliervec:=
    1    0
    2    0
    3    0
    4    1
    5    0
    6    1
    7    1
    8    0
    9    1
   10    1
   11    1
   12    1
   13    0
   14    0
   15    1
   16    1
   17    1
   18    1
   19    0
   20    0
   21    1
   22    1
   23    1
   24    0
   25    1
   26    0
   27    1
   28    0
   29    1
   30    0
   31    0
   32    1
   33    0
   34    1
   35    1
   36    0
   37    0
   38    0
   39    1
   40    0
   41    1
   42    1
   43    1
   44    0
   45    1
   46    1
   47    0
   48    1
   49    0
   50    0
   51    1
   52    0
   53    1
   54    1
   55    0
   56    1
   57    1
   58    1
   59    1
   60    0
   61    0
   62    1
   63    1
   64    0
   65    0
   66    1
   67    1
   68    1
   69    0
   70    0
   71    1
   72    1
   73    1
   74    1
   75    0
   76    0
   77    0
   78    1
   79    0
   80    0
   81    0
   82    0
   83    0
   84    0
   85    0
   86    1
   87    0
   88    1
   89    0
   90    0
   91    0
   92    1
   93    0
   94    0
   95    1
   96    0
   97    0
   98    0
   99    1
  100    1
;